qbf_easy_train/easy_4219_SAT.qdimacs
p cnf 32 86
a 10 6 0
e 1 2 3 4 5 7 8 9 11 12 13 14 15 16 17 18 19 20 21 22 23 24 25 26 27 28 29 30 31 32 0
1 -2 -3 0
-1 2 -3 0
1 2 3 0
-1 -2 3 0
3 -4 -5 0
-3 4 -5 0
3 4 5 0
-3 -4 5 0
-8 -6 0
-8 -7 0
6 7 8 0
-10 9 0
-10 -1 0
-9 1 10 0
11 -7 0
11 -10 0
7 10 -11 0
13 11 0
13 -12 0
-11 12 -13 0
14 1 0
14 -12 0
-1 12 -14 0
15 -12 0
15 6 0
12 -6 -15 0
-16 -14 0
-16 15 0
14 -15 16 0
-17 13 0
-17 -16 0
-13 16 17 0
-18 8 0
-18 17 0
-8 -17 18 0
9 7 -19 0
-9 -7 -19 0
9 -7 19 0
-9 7 19 0
-20 19 0
-20 9 0
-19 -9 20 0
-21 -20 0
-21 -20 0
20 21 0
22 2 0
22 -21 0
-2 21 -22 0
-18 22 -23 0
18 -22 -23 0
-18 -22 23 0
18 22 23 0
24 -5 0
24 -23 0
5 23 -24 0
26 20 0
26 19 0
-20 -19 -26 0
27 -19 0
27 -26 0
19 26 -27 0
25 27 -28 0
-25 -27 -28 0
25 -27 28 0
-25 27 28 0
-29 20 0
-29 -20 0
-30 10 0
-30 -29 0
-10 29 30 0
28 30 -31 0
-28 -30 -31 0
28 -30 31 0
-28 30 31 0
-32 -24 0
-32 31 0
24 -31 32 0
-10 6 25 -20 0
22 15 5 13 21 -10 0
32 30 23 -7 0
-13 -3 -26 0
-9 -25 -18 -11 -8 27 0
20 19 5 0
16 25 8 -30 26 -17 0
-17 -16 28 -24 2 15 22 5 0
32 0
