sat_easy_train/easy_4219_SAT.dimacs
p cnf 137 468
1 2 -3 0
-1 -2 -3 0
1 -2 3 0
-1 2 3 0
-2 -4 -5 0
2 4 -5 0
-2 4 5 0
2 -4 5 0
-6 -3 0
-6 5 0
3 -5 6 0
-6 7 0
6 7 0
9 -8 0
9 -8 0
8 -9 0
-9 10 -11 0
9 -10 -11 0
-9 -10 11 0
9 10 11 0
-12 -7 0
-12 -11 0
7 11 12 0
14 -10 0
14 -13 0
10 13 -14 0
-14 13 -15 0
14 -13 -15 0
-14 -13 15 0
14 13 15 0
-16 12 0
-16 -15 0
-12 15 16 0
-19 18 0
-19 -11 0
-18 11 19 0
-20 -19 0
-20 -5 0
19 5 20 0
-21 -17 0
-21 20 0
17 -20 21 0
23 22 0
23 -19 0
-22 19 -23 0
23 5 -24 0
-23 -5 -24 0
23 -5 24 0
-23 5 24 0
-26 -24 0
-26 25 0
24 -25 26 0
27 21 0
27 -26 0
-21 26 -27 0
2 -3 -28 0
-2 3 -28 0
2 3 28 0
-2 -3 28 0
28 -17 -29 0
-28 17 -29 0
28 17 29 0
-28 -17 29 0
30 -31 -32 0
-30 31 -32 0
30 31 32 0
-30 -31 32 0
33 -29 0
33 32 0
29 -32 -33 0
-34 27 0
-34 33 0
-27 -33 34 0
22 10 -35 0
-22 -10 -35 0
22 -10 35 0
-22 10 35 0
35 11 -36 0
-35 -11 -36 0
35 -11 36 0
-35 11 36 0
-37 34 0
-37 36 0
-34 -36 37 0
16 37 -38 0
-16 -37 -38 0
16 -37 38 0
-16 37 38 0
-39 19 0
-39 -2 0
-19 2 39 0
-40 17 -41 0
40 -17 -41 0
-40 -17 41 0
40 17 41 0
-39 -41 -42 0
39 41 -42 0
-39 41 42 0
39 -41 42 0
-44 22 0
-44 18 0
-22 -18 44 0
45 43 0
45 44 0
-43 -44 -45 0
45 -15 -46 0
-45 15 -46 0
45 15 46 0
-45 -15 46 0
-47 42 0
-47 46 0
-42 -46 47 0
-18 -10 -48 0
18 10 -48 0
-18 10 48 0
18 -10 48 0
-49 48 0
-49 -22 0
-48 22 49 0
-50 -47 0
-50 -49 0
47 49 50 0
51 -38 0
51 -50 0
38 50 -51 0
-52 31 0
-52 -2 0
-31 2 52 0
52 -25 -53 0
-52 25 -53 0
52 25 53 0
-52 -25 53 0
54 -53 0
54 3 0
53 -3 -54 0
-55 -13 0
-55 -7 0
13 7 55 0
-8 -5 -56 0
8 5 -56 0
-8 5 56 0
8 -5 56 0
-57 56 0
-57 -48 0
-56 48 57 0
-58 -55 0
-58 -57 0
55 57 58 0
59 58 0
59 28 0
-58 -28 -59 0
-60 -9 0
-60 59 0
9 -59 60 0
54 -60 -61 0
-54 60 -61 0
54 60 61 0
-54 -60 61 0
62 53 0
62 28 0
-53 -28 -62 0
-61 -62 -63 0
61 62 -63 0
-61 62 63 0
61 -62 63 0
-64 -5 0
-64 -5 0
5 64 0
65 15 0
65 64 0
-15 -64 -65 0
-66 63 0
-66 -65 0
-63 65 66 0
-51 -66 -67 0
51 66 -67 0
-51 66 67 0
51 -66 67 0
68 1 0
68 -24 0
-1 24 -68 0
28 -18 -69 0
-28 18 -69 0
28 18 69 0
-28 -18 69 0
-71 -69 0
-71 70 0
69 -70 71 0
72 8 0
72 64 0
-8 -64 -72 0
-73 -52 0
-73 -14 0
52 14 73 0
-74 73 0
-74 43 0
-73 -43 74 0
-75 -72 0
-75 -74 0
72 74 75 0
-71 -75 -76 0
71 75 -76 0
-71 75 76 0
71 -75 76 0
-77 70 0
-77 28 0
-70 -28 77 0
-31 18 -78 0
31 -18 -78 0
-31 -18 78 0
31 18 78 0
-79 6 0
-79 -5 0
-6 5 79 0
78 79 -80 0
-78 -79 -80 0
78 -79 80 0
-78 79 80 0
81 77 0
81 80 0
-77 -80 -81 0
-76 81 -82 0
76 -81 -82 0
-76 -81 82 0
76 81 82 0
-22 44 -83 0
22 -44 -83 0
-22 -44 83 0
22 44 83 0
83 48 -84 0
-83 -48 -84 0
83 -48 84 0
-83 48 84 0
-8 -31 -85 0
8 31 -85 0
-8 31 85 0
8 -31 85 0
-86 84 0
-86 -85 0
-84 85 86 0
-87 -8 0
-87 -6 0
8 6 87 0
-86 87 -88 0
86 -87 -88 0
-86 -87 88 0
86 87 88 0
-44 -89 -90 0
44 89 -90 0
-44 89 90 0
44 -89 90 0
-3 90 -91 0
3 -90 -91 0
-3 -90 91 0
3 90 91 0
92 13 0
92 -54 0
-13 54 -92 0
93 -92 0
93 92 0
-45 19 -94 0
45 -19 -94 0
-45 -19 94 0
45 19 94 0
-95 56 0
-95 -6 0
-56 6 95 0
96 -94 0
96 -95 0
94 95 -96 0
97 93 0
97 96 0
-93 -96 -97 0
-91 97 -98 0
91 -97 -98 0
-91 -97 98 0
91 97 98 0
99 88 0
99 98 0
-88 -98 -99 0
-100 82 0
-100 -99 0
-82 99 100 0
-101 31 0
-101 19 0
-31 -19 101 0
-55 -58 -102 0
55 58 -102 0
-55 58 102 0
55 -58 102 0
-103 72 0
-103 -102 0
-72 102 103 0
104 48 0
104 103 0
-48 -103 -104 0
-105 -101 0
-105 104 0
101 -104 105 0
-106 -100 0
-106 -105 0
100 105 106 0
-107 30 0
-107 6 0
-30 -6 107 0
-108 53 0
-108 -30 0
-53 30 108 0
109 107 0
109 -108 0
-107 108 -109 0
-110 58 0
-110 17 0
-58 -17 110 0
-10 -17 -111 0
10 17 -111 0
-10 17 111 0
10 -17 111 0
14 10 -112 0
-14 -10 -112 0
14 -10 112 0
-14 10 112 0
-113 -111 0
-113 -112 0
111 112 113 0
-113 31 -114 0
113 -31 -114 0
-113 -31 114 0
113 31 114 0
115 -18 0
115 -54 0
18 54 -115 0
111 -115 -116 0
-111 115 -116 0
111 115 116 0
-111 -115 116 0
-117 -114 0
-117 116 0
114 -116 117 0
118 110 0
118 -117 0
-110 117 -118 0
119 30 0
119 15 0
-30 -15 -119 0
-120 13 0
-120 -119 0
-13 119 120 0
121 -118 0
121 -120 0
118 120 -121 0
-122 -57 0
-122 -70 0
57 70 122 0
121 122 -123 0
-121 -122 -123 0
121 -122 123 0
-121 122 123 0
-19 -95 -124 0
19 95 -124 0
-19 95 124 0
19 -95 124 0
125 56 0
125 31 0
-56 -31 -125 0
-126 54 0
-126 56 0
-54 -56 126 0
127 -7 0
127 -126 0
7 126 -127 0
-125 -127 -128 0
125 127 -128 0
-125 127 128 0
125 -127 128 0
-129 124 0
-129 128 0
-124 -128 129 0
130 -123 0
130 -129 0
123 129 -130 0
-131 -109 0
-131 130 0
109 -130 131 0
-132 106 0
-132 131 0
-106 -131 132 0
-68 132 -133 0
68 -132 -133 0
-68 -132 133 0
68 132 133 0
-67 133 -134 0
67 -133 -134 0
-67 -133 134 0
67 133 134 0
-70 -8 -135 0
70 8 -135 0
-70 8 135 0
70 -8 135 0
-24 135 -136 0
24 -135 -136 0
-24 -135 136 0
24 135 136 0
-137 -134 0
-137 136 0
134 -136 137 0
24 69 -15 117 0
115 46 0
25 -34 21 0
-116 9 -5 120 -82 0
-134 -113 0
-84 128 110 98 5 0
-94 105 15 -90 0
98 -8 68 136 46 53 0
65 106 6 0
24 98 -18 -4 -125 0
31 -1 122 0
44 121 -129 -11 -59 -85 0
-128 -63 30 0
-87 -109 80 10 69 0
82 -27 0
22 -60 35 117 115 -3 0
37 -55 18 0
-90 129 58 0
28 58 -53 -102 -64 0
-8 11 32 36 -6 -95 0
-117 136 -137 129 0
-122 17 112 54 0
-119 -46 12 -58 0
-133 127 64 0
-36 53 6 -61 0
-55 116 -4 38 -76 0
44 -16 109 -34 136 -62 0
-65 -77 -26 -6 0
22 27 62 -58 28 0
-117 -69 110 0
88 -115 -66 0
32 -59 -83 0
12 44 -118 0
55 -45 -71 26 0
-18 55 77 -121 127 37 0
102 -11 40 -136 -112 91 0
128 123 118 -43 61 0
-81 -10 46 0
-46 -113 -14 75 -91 0
-65 -122 59 0
55 -75 32 -96 83 0
-125 -80 0
36 44 -84 0
133 -13 -73 34 0
14 -69 -33 -28 79 6 0
97 -66 -119 -95 0
92 28 0
-75 136 0
21 -27 0
59 -39 108 -15 -14 0
-57 -71 34 132 0
27 -50 47 35 88 0
101 34 -122 57 63 120 0
-107 28 132 0
46 -44 -64 -38 100 -117 0
-96 -120 40 -97 -83 -9 0
-8 109 -13 -40 0
70 69 45 111 0
-77 125 0
4 108 0
132 85 -112 89 0
137 0
